<number of tasks>
250

<cycle time>
1000

<order strength>
0.596


<task times>
1 154
2 78
3 126
4 65
5 101
6 65
7 175
8 115
9 103
10 35
11 141
12 148
13 158
14 124
15 32
16 189
17 126
18 28
19 151
20 130
21 208
22 27
23 57
24 148
25 106
26 109
27 98
28 189
29 181
30 120
31 123
32 221
33 57
34 61
35 130
36 189
37 191
38 337
39 204
40 95
41 135
42 98
43 27
44 85
45 172
46 97
47 139
48 71
49 158
50 296
51 81
52 219
53 110
54 185
55 213
56 46
57 124
58 190
59 245
60 65
61 64
62 191
63 46
64 213
65 224
66 242
67 174
68 86
69 102
70 90
71 101
72 48
73 108
74 34
75 184
76 37
77 155
78 121
79 112
80 105
81 176
82 110
83 65
84 149
85 221
86 254
87 172
88 122
89 75
90 171
91 126
92 144
93 84
94 63
95 249
96 128
97 26
98 103
99 109
100 144
101 175
102 231
103 126
104 226
105 142
106 144
107 118
108 63
109 95
110 176
111 356
112 212
113 216
114 56
115 166
116 235
117 106
118 287
119 255
120 85
121 156
122 283
123 205
124 126
125 174
126 50
127 155
128 96
129 267
130 86
131 153
132 120
133 91
134 76
135 66
136 240
137 204
138 94
139 198
140 117
141 304
142 30
143 145
144 22
145 249
146 80
147 187
148 99
149 47
150 64
151 91
152 36
153 129
154 69
155 22
156 48
157 191
158 99
159 96
160 285
161 352
162 93
163 42
164 41
165 174
166 85
167 220
168 182
169 311
170 228
171 76
172 272
173 79
174 60
175 104
176 64
177 53
178 221
179 291
180 179
181 142
182 31
183 190
184 83
185 63
186 113
187 129
188 51
189 23
190 175
191 171
192 113
193 331
194 50
195 194
196 151
197 249
198 116
199 65
200 198
201 65
202 201
203 34
204 22
205 181
206 88
207 236
208 48
209 126
210 185
211 129
212 140
213 209
214 113
215 171
216 101
217 131
218 164
219 46
220 279
221 133
222 49
223 277
224 233
225 181
226 64
227 75
228 76
229 149
230 86
231 103
232 142
233 208
234 80
235 109
236 277
237 214
238 121
239 41
240 173
241 184
242 93
243 250
244 77
245 93
246 269
247 197
248 160
249 156
250 116

<precedence relations>
1,6
2,7
3,5
3,9
3,10
3,11
4,8
4,9
4,10
4,11
5,12
6,14
7,15
8,13
8,16
8,17
9,16
9,17
10,16
10,17
11,16
11,17
12,20
13,18
14,19
15,21
16,21
16,22
16,23
16,24
16,25
17,21
17,22
17,23
18,27
19,29
20,28
21,26
21,29
22,29
22,31
22,32
23,32
24,29
24,30
24,31
25,29
25,30
25,31
25,32
26,33
27,35
28,34
29,36
29,37
29,38
29,39
29,40
29,41
30,36
30,37
30,39
31,36
32,36
32,38
33,42
34,43
35,44
36,46
37,44
37,50
38,44
38,45
38,48
39,47
40,44
40,47
40,50
41,44
41,45
41,49
42,51
43,52
44,54
44,55
44,56
44,57
44,71
45,53
45,55
45,56
46,55
46,56
46,57
46,71
47,55
47,56
47,57
47,71
48,55
48,56
48,57
48,71
49,55
49,56
49,57
49,71
50,55
50,71
50,94
51,59
52,60
53,61
54,62
55,58
55,72
55,91
55,100
56,63
56,73
56,84
57,63
57,64
57,65
57,66
58,67
59,71
60,68
61,72
62,73
63,69
63,83
63,124
64,70
64,74
64,94
65,75
65,107
66,70
67,82
68,77
69,78
70,76
70,79
70,80
70,85
71,81
71,143
72,83
72,131
73,81
73,94
74,81
74,82
74,108
74,116
74,132
75,84
75,113
75,116
75,151
76,87
77,91
78,90
79,88
80,89
81,86
81,183
82,130
82,174
82,206
83,92
83,102
84,94
84,114
85,91
85,93
86,95
87,98
88,100
89,96
90,97
91,99
91,101
91,132
92,99
92,144
92,184
92,199
93,102
93,114
94,115
94,134
95,103
96,105
97,106
98,145
98,146
98,165
99,104
99,138
100,107
101,106
102,108
102,130
102,157
102,184
102,195
103,112
104,110
105,111
106,109
106,113
106,114
106,116
106,151
107,115
108,139
108,169
109,117
110,118
111,120
112,119
112,121
114,122
114,125
114,133
115,124
116,122
116,123
116,131
117,130
118,129
119,126
120,127
121,128
122,130
122,134
122,147
123,130
123,133
123,167
123,190
124,132
124,156
125,131
125,182
126,135
127,138
128,136
129,137
131,139
131,156
132,138
132,139
132,167
133,138
134,153
134,159
135,141
136,140
137,142
138,143
138,145
138,147
139,144
139,145
139,146
139,152
139,165
139,190
140,149
141,151
142,150
143,148
143,152
143,153
143,159
143,210
144,208
144,209
144,239
147,238
148,154
149,156
150,155
151,159
151,206
152,160
153,157
153,158
153,209
154,165
155,162
156,161
156,163
156,167
156,169
157,164
157,165
157,168
157,228
159,229
159,233
159,238
160,166
160,209
160,229
161,170
162,171
163,172
164,173
165,176
165,206
166,177
166,206
166,219
166,234
167,174
167,176
169,175
169,176
170,178
171,179
172,181
173,182
174,180
174,184
174,208
174,241
175,250
176,185
176,191
177,183
177,220
177,243
178,186
179,187
180,188
181,190
182,191
182,250
183,189
184,220
185,244
186,192
187,193
188,195
189,194
189,238
189,239
190,196
190,199
190,235
190,239
191,197
191,198
192,206
193,201
194,200
195,205
195,209
195,243
196,202
197,203
197,207
197,208
197,239
198,204
198,211
199,210
200,212
201,213
202,214
203,215
204,216
205,217
206,220
208,218
209,219
209,247
210,220
210,240
211,218
212,222
213,224
214,225
215,221
216,223
217,226
218,229
218,233
219,228
220,227
221,230
222,232
223,231
224,233
225,234
226,232
228,240
228,244
229,235
230,238
231,239
232,236
232,237
233,242
233,244
234,241
235,240
235,243
235,244
236,245
237,246
238,248
239,247
239,249
240,249
241,249
241,250

<end>
